\* PC3 *\
Minimize
OBJ: 16 PCA_IO3000 + 16 PCA_IO3010 + 8 PCA_IO3020 + 8 PCA_IO3030
 + 8 PCA_IO3100 + 12 PCA_IO3130 + 14 PCA_IO3200 + 8 PCA_IO3210 + 8 PCA_IO3220
 + 4 PCA_IO3300 + 8 PCA_IO3310 + 16 PCA_IO3400 + 16 PCA_IO3410 + 12 PCA_IO3500
 + 44 PCA_IO3510 + 8 PCA_IO3520 + 8 PCA_IO3530 + 52 PCA_IO3540 + 52 PCA_IO3545
 + 39 PCA_IO3546 + 28 PCA_IO3550
Subject To
_C1: 16 PCA_IO3000 + 8 PCA_IO3400 + 4 PCA_IO3500 + 24 PCA_IO3510
 + 24 PCA_IO3540 + 24 PCA_IO3545 + 18 PCA_IO3546 >= 4
_C10: 14 PCA_IO3200 + 8 PCA_IO3210 + 4 PCA_IO3500 + 8 PCA_IO3510
 + 4 PCA_IO3520 + 6 PCA_IO3530 + 8 PCA_IO3540 + 8 PCA_IO3545 + 3 PCA_IO3546
 + 7 PCA_IO3550 >= 0
_C11: 8 PCA_IO3220 >= 0
_C12: 4 PCA_IO3300 + 8 PCA_IO3310 + 2 PCA_IO3510 + 4 PCA_IO3520 + 2 PCA_IO3530
 + 2 PCA_IO3540 + 2 PCA_IO3545 + 5 PCA_IO3550 >= 0
_C2: 8 PCA_IO3030 >= 0
_C3: 8 PCA_IO3100 + 8 PCA_IO3400 + 4 PCA_IO3500 + 10 PCA_IO3510
 + 18 PCA_IO3540 + 18 PCA_IO3545 + 18 PCA_IO3546 >= 0
_C4: 10 PCA_IO3550 >= 0
_dummy: __dummy = 0
_C5: __dummy >= 0
_C6: 6 PCA_IO3550 >= 0
_C7: 16 PCA_IO3010 + 8 PCA_IO3410 >= 0
_C8: 8 PCA_IO3020 >= 0
_C9: 12 PCA_IO3130 + 8 PCA_IO3410 >= 0
Bounds
0 <= PCA_IO3000
0 <= PCA_IO3010
0 <= PCA_IO3020
0 <= PCA_IO3030
0 <= PCA_IO3100
0 <= PCA_IO3130
0 <= PCA_IO3200
0 <= PCA_IO3210
0 <= PCA_IO3220
0 <= PCA_IO3300
0 <= PCA_IO3310
0 <= PCA_IO3400
0 <= PCA_IO3410
0 <= PCA_IO3500
0 <= PCA_IO3510
0 <= PCA_IO3520
0 <= PCA_IO3530
0 <= PCA_IO3540
0 <= PCA_IO3545
0 <= PCA_IO3546
0 <= PCA_IO3550
__dummy = 0
Generals
PCA_IO3000
PCA_IO3010
PCA_IO3020
PCA_IO3030
PCA_IO3100
PCA_IO3130
PCA_IO3200
PCA_IO3210
PCA_IO3220
PCA_IO3300
PCA_IO3310
PCA_IO3400
PCA_IO3410
PCA_IO3500
PCA_IO3510
PCA_IO3520
PCA_IO3530
PCA_IO3540
PCA_IO3545
PCA_IO3546
PCA_IO3550
End
